c Output_time 26.03.2020 18:13:08_+0100 1585242788900928823
c ** Program information **
c program_name                          "QBRG_debug"
c version                               "0.3.20"
c date                                  "25.3.2020"
c gid_id                                "673970833836058123f633335630c185360d632e"
c author                                "Oliver Kullmann"
c url                                   "https://github.com/OKullmann/oklibrary/blob/master/Satisfiability/Transformers/Generators/Random/QBRG.cpp"
c ** Machine information **
c machine_name                          "chyna-Lenovo-G50-70"
c bogomips                              3791.08
c ** Compilation information **
c compiler_version                      "g++ 7.5.0"
c compilation_date                      "Mar_26_2020 11:16:30"
c compilation_options                   "--std=c++17 -pedantic -fmax-errors=5 -Wall -Wextra -g -D_GLIBCXX_DEBUG"
c NDEBUG                                0
c OPTIMIZE                              0
c ** Parameters **
c command-line                          "./QBRG_debug" "e40 a40 40" "83*1,1|2-2,1|3-3,1" "" "1,t" ""
c output                                "QuBlRaGe_120_83_1585242788900550463.qdimacs"
c options                               "filtered,renamed"
c num_quantifier_blocks                 3
c  quantifier_blocks                    1:e1-40 2:a41-80 3:e81-120
c num_clause-blocks                     1
c  clause-blocks                        83 * {1-40,1,1/2} | {41-80,1,1/2} | {81-120,1,1/2}
c num_e-seeds                           30+2=32
c  e-seeds                              1 0 1 0 4 120 2 40 1 40 0 40 1 83 3 1 1 1 1 2 2 2 1 1 2 3 3 1 1 2 1 1585242788900550102
p cnf 102 83
e 1 2 3 4 5 6 7 8 9 10 11 12 13 14 15 16 17 18 19 20 21 22 23 24 25 26 27 28 29 30 31 32 33 34 0
a 35 36 37 38 39 40 41 42 43 44 45 46 47 48 49 50 51 52 53 54 55 56 57 58 59 60 61 62 63 64 65 66 0
e 67 68 69 70 71 72 73 74 75 76 77 78 79 80 81 82 83 84 85 86 87 88 89 90 91 92 93 94 95 96 97 98 99 100 101 102 0
2 39 -67 0
-11 -42 -67 0
-34 -60 -67 0
-9 -41 68 0
30 55 68 0
-23 -39 69 0
-22 -49 -70 0
6 61 -70 0
-22 64 71 0
-26 -42 -72 0
-14 48 72 0
33 -49 72 0
12 36 -73 0
5 -37 73 0
-18 -48 -74 0
-6 -40 -75 0
-32 -41 75 0
7 43 75 0
16 -57 75 0
14 -65 75 0
8 -59 -76 0
10 -47 77 0
-14 -65 77 0
28 55 -78 0
-22 -40 78 0
3 41 78 0
7 46 78 0
-26 36 -79 0
15 60 80 0
-4 40 -81 0
-21 -44 -81 0
-21 50 -81 0
19 -38 -82 0
5 -56 -82 0
29 56 -82 0
25 -51 82 0
-6 48 -83 0
-15 -35 83 0
-18 62 83 0
10 41 -84 0
8 52 84 0
-20 57 84 0
-13 37 -85 0
4 39 -85 0
20 -57 -85 0
-5 -54 85 0
-29 56 85 0
25 50 -86 0
-34 55 -87 0
-6 -66 88 0
-30 -66 88 0
29 63 -89 0
13 -36 89 0
-1 -62 -90 0
-16 -46 90 0
-28 -57 -91 0
24 -39 91 0
14 -47 91 0
-6 -57 -92 0
17 35 92 0
-25 52 93 0
-8 35 94 0
31 -62 94 0
-11 -62 95 0
-11 60 96 0
-11 -50 -97 0
28 -58 97 0
7 43 98 0
18 -45 98 0
-12 -55 98 0
-5 37 99 0
-25 -42 -100 0
-1 51 -100 0
-27 51 -100 0
24 -53 -100 0
7 61 -100 0
-20 62 100 0
-7 -65 100 0
8 -41 101 0
28 -48 -102 0
-34 65 -102 0
-10 -52 102 0
32 -65 102 0
